data/lp_files/q3/48_8.lp
\ Model foo
\ LP format - for model browsing. Use MPS format to capture full model detail.
Minimize
  z
Subject To
 allocateEach[1]: x[1,1] + x[2,1] + x[3,1] = 1
 allocateEach[2]: x[1,2] + x[2,2] + x[3,2] = 1
 allocateEach[3]: x[1,3] + x[2,3] + x[3,3] = 1
 allocateEach[4]: x[1,4] + x[2,4] + x[3,4] = 1
 allocateEach[5]: x[1,5] + x[2,5] + x[3,5] = 1
 allocateEach[6]: x[1,6] + x[2,6] + x[3,6] = 1
 allocateEach[7]: x[1,7] + x[2,7] + x[3,7] = 1
 allocateEach[8]: x[1,8] + x[2,8] + x[3,8] = 1
 allocateAllCash: cashProportion[1] + cashProportion[2] + cashProportion[3]
   = 1
 findWorstP[1,2]: z + 0.1496949964447439 cashProportion[1]
   - 0.1496949964447439 cashProportion[2] + 0.1249204745331387 x[1,1]
   + 0.1590509337225403 x[1,2] + 0.0683919015006923 x[1,3]
   + 0.1425844841136185 x[1,4] + 0.1433703828449534 x[1,5]
   + 0.0662961715504659 x[1,6] + 0.0558362336738895 x[1,7]
   + 0.0898544216159575 x[1,8] - 0.1249204745331387 x[2,1]
   - 0.1590509337225403 x[2,2] - 0.0683919015006923 x[2,3]
   - 0.1425844841136185 x[2,4] - 0.1433703828449534 x[2,5]
   - 0.0662961715504659 x[2,6] - 0.0558362336738895 x[2,7]
   - 0.0898544216159575 x[2,8] >= 0
 findWorstP[1,3]: z + 0.1496949964447439 cashProportion[1]
   - 0.1496949964447439 cashProportion[3] + 0.1249204745331387 x[1,1]
   + 0.1590509337225403 x[1,2] + 0.0683919015006923 x[1,3]
   + 0.1425844841136185 x[1,4] + 0.1433703828449534 x[1,5]
   + 0.0662961715504659 x[1,6] + 0.0558362336738895 x[1,7]
   + 0.0898544216159575 x[1,8] - 0.1249204745331387 x[3,1]
   - 0.1590509337225403 x[3,2] - 0.0683919015006923 x[3,3]
   - 0.1425844841136185 x[3,4] - 0.1433703828449534 x[3,5]
   - 0.0662961715504659 x[3,6] - 0.0558362336738895 x[3,7]
   - 0.0898544216159575 x[3,8] >= 0
 findWorstP[2,1]: z - 0.2160235465665758 cashProportion[1]
   + 0.2160235465665758 cashProportion[2] - 6.2106769637890516e-04 x[1,1]
   - 0.0652391110631059 x[1,2] - 0.0487943185807253 x[1,3]
   - 0.2033051602624686 x[1,4] - 0.1296411308832663 x[1,5]
   - 0.1084168174331002 x[1,6] - 0.2092998136796911 x[1,7]
   - 0.018659033834688 x[1,8] + 6.2106769637890516e-04 x[2,1]
   + 0.0652391110631059 x[2,2] + 0.0487943185807253 x[2,3]
   + 0.2033051602624686 x[2,4] + 0.1296411308832663 x[2,5]
   + 0.1084168174331002 x[2,6] + 0.2092998136796911 x[2,7]
   + 0.018659033834688 x[2,8] >= 0
 findWorstP[2,3]: z + 0.2160235465665758 cashProportion[2]
   - 0.2160235465665758 cashProportion[3] + 6.2106769637890516e-04 x[2,1]
   + 0.0652391110631059 x[2,2] + 0.0487943185807253 x[2,3]
   + 0.2033051602624686 x[2,4] + 0.1296411308832663 x[2,5]
   + 0.1084168174331002 x[2,6] + 0.2092998136796911 x[2,7]
   + 0.018659033834688 x[2,8] - 6.2106769637890516e-04 x[3,1]
   - 0.0652391110631059 x[3,2] - 0.0487943185807253 x[3,3]
   - 0.2033051602624686 x[3,4] - 0.1296411308832663 x[3,5]
   - 0.1084168174331002 x[3,6] - 0.2092998136796911 x[3,7]
   - 0.018659033834688 x[3,8] >= 0
 findWorstP[3,1]: z - 0.2303683013217382 cashProportion[1]
   + 0.2303683013217382 cashProportion[3] - 0.1521870590606733 x[1,1]
   - 0.0450082068707346 x[1,2] - 0.0663172747429954 x[1,3]
   - 0.1358021136291646 x[1,4] - 0.242145880726812 x[1,5]
   - 0.0248797765427477 x[1,6] - 0.0658853341780171 x[1,7]
   - 0.0374060529271172 x[1,8] + 0.1521870590606733 x[3,1]
   + 0.0450082068707346 x[3,2] + 0.0663172747429954 x[3,3]
   + 0.1358021136291646 x[3,4] + 0.242145880726812 x[3,5]
   + 0.0248797765427477 x[3,6] + 0.0658853341780171 x[3,7]
   + 0.0374060529271172 x[3,8] >= 0
 findWorstP[3,2]: z - 0.2303683013217382 cashProportion[2]
   + 0.2303683013217382 cashProportion[3] - 0.1521870590606733 x[2,1]
   - 0.0450082068707346 x[2,2] - 0.0663172747429954 x[2,3]
   - 0.1358021136291646 x[2,4] - 0.242145880726812 x[2,5]
   - 0.0248797765427477 x[2,6] - 0.0658853341780171 x[2,7]
   - 0.0374060529271172 x[2,8] + 0.1521870590606733 x[3,1]
   + 0.0450082068707346 x[3,2] + 0.0663172747429954 x[3,3]
   + 0.1358021136291646 x[3,4] + 0.242145880726812 x[3,5]
   + 0.0248797765427477 x[3,6] + 0.0658853341780171 x[3,7]
   + 0.0374060529271172 x[3,8] >= 0
Bounds
 z <= 1
 -infinity <= cashProportion[1] <= 1
 -infinity <= cashProportion[2] <= 1
 -infinity <= cashProportion[3] <= 1
Binaries
 x[1,1] x[1,2] x[1,3] x[1,4] x[1,5] x[1,6] x[1,7] x[1,8] x[2,1] x[2,2]
 x[2,3] x[2,4] x[2,5] x[2,6] x[2,7] x[2,8] x[3,1] x[3,2] x[3,3] x[3,4]
 x[3,5] x[3,6] x[3,7] x[3,8]
End
