data/mps_files/q3/48_8.mps
NAME foo
ROWS
 N  OBJ
 E  allocateEach[1]
 E  allocateEach[2]
 E  allocateEach[3]
 E  allocateEach[4]
 E  allocateEach[5]
 E  allocateEach[6]
 E  allocateEach[7]
 E  allocateEach[8]
 E  allocateAllCash
 G  findWorstP[1,2]
 G  findWorstP[1,3]
 G  findWorstP[2,1]
 G  findWorstP[2,3]
 G  findWorstP[3,1]
 G  findWorstP[3,2]
COLUMNS
    z         OBJ       1
    z         findWorstP[1,2]  1
    z         findWorstP[1,3]  1
    z         findWorstP[2,1]  1
    z         findWorstP[2,3]  1
    z         findWorstP[3,1]  1
    z         findWorstP[3,2]  1
    cashProportion[1]  allocateAllCash  1
    cashProportion[1]  findWorstP[1,2]  1.4969499644474388e-01
    cashProportion[1]  findWorstP[1,3]  1.4969499644474388e-01
    cashProportion[1]  findWorstP[2,1]  -2.1602354656657577e-01
    cashProportion[1]  findWorstP[3,1]  -2.3036830132173819e-01
    cashProportion[2]  allocateAllCash  1
    cashProportion[2]  findWorstP[1,2]  -1.4969499644474388e-01
    cashProportion[2]  findWorstP[2,1]  2.1602354656657577e-01
    cashProportion[2]  findWorstP[2,3]  2.1602354656657577e-01
    cashProportion[2]  findWorstP[3,2]  -2.3036830132173819e-01
    cashProportion[3]  allocateAllCash  1
    cashProportion[3]  findWorstP[1,3]  -1.4969499644474388e-01
    cashProportion[3]  findWorstP[2,3]  -2.1602354656657577e-01
    cashProportion[3]  findWorstP[3,1]  2.3036830132173819e-01
    cashProportion[3]  findWorstP[3,2]  2.3036830132173819e-01
    MARKER    'MARKER'                 'INTORG'
    x[1,1]    allocateEach[1]  1
    x[1,1]    findWorstP[1,2]  1.2492047453313873e-01
    x[1,1]    findWorstP[1,3]  1.2492047453313873e-01
    x[1,1]    findWorstP[2,1]  -6.2106769637890516e-04
    x[1,1]    findWorstP[3,1]  -1.5218705906067326e-01
    x[1,2]    allocateEach[2]  1
    x[1,2]    findWorstP[1,2]  1.5905093372254034e-01
    x[1,2]    findWorstP[1,3]  1.5905093372254034e-01
    x[1,2]    findWorstP[2,1]  -6.5239111063105870e-02
    x[1,2]    findWorstP[3,1]  -4.5008206870734584e-02
    x[1,3]    allocateEach[3]  1
    x[1,3]    findWorstP[1,2]  6.8391901500692340e-02
    x[1,3]    findWorstP[1,3]  6.8391901500692340e-02
    x[1,3]    findWorstP[2,1]  -4.8794318580725290e-02
    x[1,3]    findWorstP[3,1]  -6.6317274742995369e-02
    x[1,4]    allocateEach[4]  1
    x[1,4]    findWorstP[1,2]  1.4258448411361851e-01
    x[1,4]    findWorstP[1,3]  1.4258448411361851e-01
    x[1,4]    findWorstP[2,1]  -2.0330516026246859e-01
    x[1,4]    findWorstP[3,1]  -1.3580211362916464e-01
    x[1,5]    allocateEach[5]  1
    x[1,5]    findWorstP[1,2]  1.4337038284495340e-01
    x[1,5]    findWorstP[1,3]  1.4337038284495340e-01
    x[1,5]    findWorstP[2,1]  -1.2964113088326626e-01
    x[1,5]    findWorstP[3,1]  -2.4214588072681198e-01
    x[1,6]    allocateEach[6]  1
    x[1,6]    findWorstP[1,2]  6.6296171550465924e-02
    x[1,6]    findWorstP[1,3]  6.6296171550465924e-02
    x[1,6]    findWorstP[2,1]  -1.0841681743310019e-01
    x[1,6]    findWorstP[3,1]  -2.4879776542747721e-02
    x[1,7]    allocateEach[7]  1
    x[1,7]    findWorstP[1,2]  5.5836233673889450e-02
    x[1,7]    findWorstP[1,3]  5.5836233673889450e-02
    x[1,7]    findWorstP[2,1]  -2.0929981367969105e-01
    x[1,7]    findWorstP[3,1]  -0.0658853341780171
    x[1,8]    allocateEach[8]  1
    x[1,8]    findWorstP[1,2]  0.0898544216159575
    x[1,8]    findWorstP[1,3]  0.0898544216159575
    x[1,8]    findWorstP[2,1]  -1.8659033834687977e-02
    x[1,8]    findWorstP[3,1]  -3.7406052927117225e-02
    x[2,1]    allocateEach[1]  1
    x[2,1]    findWorstP[1,2]  -1.2492047453313873e-01
    x[2,1]    findWorstP[2,1]  6.2106769637890516e-04
    x[2,1]    findWorstP[2,3]  6.2106769637890516e-04
    x[2,1]    findWorstP[3,2]  -1.5218705906067326e-01
    x[2,2]    allocateEach[2]  1
    x[2,2]    findWorstP[1,2]  -1.5905093372254034e-01
    x[2,2]    findWorstP[2,1]  6.5239111063105870e-02
    x[2,2]    findWorstP[2,3]  6.5239111063105870e-02
    x[2,2]    findWorstP[3,2]  -4.5008206870734584e-02
    x[2,3]    allocateEach[3]  1
    x[2,3]    findWorstP[1,2]  -6.8391901500692340e-02
    x[2,3]    findWorstP[2,1]  4.8794318580725290e-02
    x[2,3]    findWorstP[2,3]  4.8794318580725290e-02
    x[2,3]    findWorstP[3,2]  -6.6317274742995369e-02
    x[2,4]    allocateEach[4]  1
    x[2,4]    findWorstP[1,2]  -1.4258448411361851e-01
    x[2,4]    findWorstP[2,1]  2.0330516026246859e-01
    x[2,4]    findWorstP[2,3]  2.0330516026246859e-01
    x[2,4]    findWorstP[3,2]  -1.3580211362916464e-01
    x[2,5]    allocateEach[5]  1
    x[2,5]    findWorstP[1,2]  -1.4337038284495340e-01
    x[2,5]    findWorstP[2,1]  1.2964113088326626e-01
    x[2,5]    findWorstP[2,3]  1.2964113088326626e-01
    x[2,5]    findWorstP[3,2]  -2.4214588072681198e-01
    x[2,6]    allocateEach[6]  1
    x[2,6]    findWorstP[1,2]  -6.6296171550465924e-02
    x[2,6]    findWorstP[2,1]  1.0841681743310019e-01
    x[2,6]    findWorstP[2,3]  1.0841681743310019e-01
    x[2,6]    findWorstP[3,2]  -2.4879776542747721e-02
    x[2,7]    allocateEach[7]  1
    x[2,7]    findWorstP[1,2]  -5.5836233673889450e-02
    x[2,7]    findWorstP[2,1]  2.0929981367969105e-01
    x[2,7]    findWorstP[2,3]  2.0929981367969105e-01
    x[2,7]    findWorstP[3,2]  -0.0658853341780171
    x[2,8]    allocateEach[8]  1
    x[2,8]    findWorstP[1,2]  -0.0898544216159575
    x[2,8]    findWorstP[2,1]  1.8659033834687977e-02
    x[2,8]    findWorstP[2,3]  1.8659033834687977e-02
    x[2,8]    findWorstP[3,2]  -3.7406052927117225e-02
    x[3,1]    allocateEach[1]  1
    x[3,1]    findWorstP[1,3]  -1.2492047453313873e-01
    x[3,1]    findWorstP[2,3]  -6.2106769637890516e-04
    x[3,1]    findWorstP[3,1]  1.5218705906067326e-01
    x[3,1]    findWorstP[3,2]  1.5218705906067326e-01
    x[3,2]    allocateEach[2]  1
    x[3,2]    findWorstP[1,3]  -1.5905093372254034e-01
    x[3,2]    findWorstP[2,3]  -6.5239111063105870e-02
    x[3,2]    findWorstP[3,1]  4.5008206870734584e-02
    x[3,2]    findWorstP[3,2]  4.5008206870734584e-02
    x[3,3]    allocateEach[3]  1
    x[3,3]    findWorstP[1,3]  -6.8391901500692340e-02
    x[3,3]    findWorstP[2,3]  -4.8794318580725290e-02
    x[3,3]    findWorstP[3,1]  6.6317274742995369e-02
    x[3,3]    findWorstP[3,2]  6.6317274742995369e-02
    x[3,4]    allocateEach[4]  1
    x[3,4]    findWorstP[1,3]  -1.4258448411361851e-01
    x[3,4]    findWorstP[2,3]  -2.0330516026246859e-01
    x[3,4]    findWorstP[3,1]  1.3580211362916464e-01
    x[3,4]    findWorstP[3,2]  1.3580211362916464e-01
    x[3,5]    allocateEach[5]  1
    x[3,5]    findWorstP[1,3]  -1.4337038284495340e-01
    x[3,5]    findWorstP[2,3]  -1.2964113088326626e-01
    x[3,5]    findWorstP[3,1]  2.4214588072681198e-01
    x[3,5]    findWorstP[3,2]  2.4214588072681198e-01
    x[3,6]    allocateEach[6]  1
    x[3,6]    findWorstP[1,3]  -6.6296171550465924e-02
    x[3,6]    findWorstP[2,3]  -1.0841681743310019e-01
    x[3,6]    findWorstP[3,1]  2.4879776542747721e-02
    x[3,6]    findWorstP[3,2]  2.4879776542747721e-02
    x[3,7]    allocateEach[7]  1
    x[3,7]    findWorstP[1,3]  -5.5836233673889450e-02
    x[3,7]    findWorstP[2,3]  -2.0929981367969105e-01
    x[3,7]    findWorstP[3,1]  0.0658853341780171
    x[3,7]    findWorstP[3,2]  0.0658853341780171
    x[3,8]    allocateEach[8]  1
    x[3,8]    findWorstP[1,3]  -0.0898544216159575
    x[3,8]    findWorstP[2,3]  -1.8659033834687977e-02
    x[3,8]    findWorstP[3,1]  3.7406052927117225e-02
    x[3,8]    findWorstP[3,2]  3.7406052927117225e-02
    MARKER    'MARKER'                 'INTEND'
RHS
    RHS1      allocateEach[1]  1
    RHS1      allocateEach[2]  1
    RHS1      allocateEach[3]  1
    RHS1      allocateEach[4]  1
    RHS1      allocateEach[5]  1
    RHS1      allocateEach[6]  1
    RHS1      allocateEach[7]  1
    RHS1      allocateEach[8]  1
    RHS1      allocateAllCash  1
BOUNDS
 UP BND1      z         1
 MI BND1      cashProportion[1]
 UP BND1      cashProportion[1]  1
 MI BND1      cashProportion[2]
 UP BND1      cashProportion[2]  1
 MI BND1      cashProportion[3]
 UP BND1      cashProportion[3]  1
 BV BND1      x[1,1]  
 BV BND1      x[1,2]  
 BV BND1      x[1,3]  
 BV BND1      x[1,4]  
 BV BND1      x[1,5]  
 BV BND1      x[1,6]  
 BV BND1      x[1,7]  
 BV BND1      x[1,8]  
 BV BND1      x[2,1]  
 BV BND1      x[2,2]  
 BV BND1      x[2,3]  
 BV BND1      x[2,4]  
 BV BND1      x[2,5]  
 BV BND1      x[2,6]  
 BV BND1      x[2,7]  
 BV BND1      x[2,8]  
 BV BND1      x[3,1]  
 BV BND1      x[3,2]  
 BV BND1      x[3,3]  
 BV BND1      x[3,4]  
 BV BND1      x[3,5]  
 BV BND1      x[3,6]  
 BV BND1      x[3,7]  
 BV BND1      x[3,8]  
ENDATA
